5 
4 
7 
3 
2 
1 
5 
5 
2 
5 
8 
3 
6 
3 
6 
5 
4 
7 
3 
4 
6 
1 
5 
8 
3 
2 
5 
5 
3 
7 
4 
4 
5 
4 
7 
9 
4 
6 
4 
7 
7 
2 
4 
5 
6 
3 
6 
3 
4 
8 
6 
6 
7 
6 
7 
4 
9 
3 
8 
5 
10 
4 
3 
6 
8 
7 
3 
8 
6 
4 
3 
3 
6 
6 
2 
3 
5 
10 
5 
7 
8 
4 
2 
3 
3 
3 
7 
5 
4 
2 
4 
5 
6 
2 
4 
3 
5 
4 
9 
3 
